Problem:    
Rows:       105
Columns:    45 (34 integer, 34 binary)
Non-zeros:  302
Status:     INTEGER OPTIMAL
Objective:  value = 13.58704 (MINimum)

   No.   Row name        Activity     Lower bound   Upper bound
------ ------------    ------------- ------------- -------------
     1 r.5                    13.587             0               
     2 r.6                   2.65034      -1998.02               
     3 r.7                   2013.59             0               
     4 r.8                  -1988.84      -1998.78               
     5 r.9                   2013.59             0               
     6 r.10                 -1986.41      -1997.06               
     7 r.11                   13.587             0               
     8 r.12                  9.94524      -1997.54               
     9 r.13                  2013.59             0               
    10 r.14                 -1989.35      -1994.78               
    11 r.15                   13.587             0               
    12 r.16                  7.48144      -1996.07               
    13 r.17                   13.587             0               
    14 r.18                  5.42984      -1997.22               
    15 r.19                  2013.59             0               
    16 r.20                 -1986.41      -1997.58               
    17 r.21                  2013.59             0               
    18 r.22                 -1999.73      -1999.73               
    19 r.23                   13.587             0               
    20 r.24                    0.274      -1998.77               
    21 r.25                        1             1             = 
    22 r.26                        1             1             = 
    23 r.27                        1             1             = 
    24 r.28                        1             1             = 
    25 r.29                        1             1             = 
    26 r.30                  10.9367        2.9375               
    27 r.31                 -10.9367      -1998.02               
    28 r.32                  1998.78        2.4638               
    29 r.33                 -1998.78      -1998.78               
    30 r.34                   7.9992        5.2197               
    31 r.35                  -7.9992      -1998.02               
    32 r.36                  1996.32        3.9298               
    33 r.37                 -1996.32      -1998.78               
    34 r.38                   2.7795        2.7795               
    35 r.39                  -2.7795      -1998.02               
    36 r.40                   2.4237        2.4237               
    37 r.41                  -2.4237      -1998.78               
    38 r.42                  2.37634      -1993.44               
    39 r.43                 -1989.11      -1989.11               
    40 r.44                  2.37634      -1993.44               
    41 r.45                 -1989.11      -1989.11               
    42 r.46                  1989.06          1.98               
    43 r.47                 -1989.06      -1997.06               
    44 r.48                   1.2181        1.2181               
    45 r.49                  -1.2181      -1997.54               
    46 r.50                  1997.06        5.2197               
    47 r.51                 -1997.06      -1997.06               
    48 r.52                  1997.54        3.9298               
    49 r.53                 -1997.54      -1997.54               
    50 r.54                  1991.84        2.7795               
    51 r.55                 -1991.84      -1997.06               
    52 r.56                   3.6418        2.4237               
    53 r.57                  -3.6418      -1997.54               
    54 r.58                 -1986.69      -1992.48               
    55 r.59                  9.67124      -1987.86               
    56 r.60                 -1986.69      -1992.48               
    57 r.61                  9.67124      -1987.86               
    58 r.62                     1992          1.98               
    59 r.63                    -1992      -1994.78               
    60 r.64                   3.6819        1.2181               
    61 r.65                  -3.6819      -1996.07               
    62 r.66                   2.9375        2.9375               
    63 r.67                  -2.9375      -1994.78               
    64 r.68                   2.4638        2.4638               
    65 r.69                  -2.4638      -1996.07               
    66 r.70                  1994.78        2.7795               
    67 r.71                 -1994.78      -1994.78               
    68 r.72                   6.1056        2.4237               
    69 r.73                  -6.1056      -1996.07               
    70 r.74                 -1989.62       -1990.2               
    71 r.75                  7.20744       -1986.4               
    72 r.76                 -1989.62       -1990.2               
    73 r.77                  7.20744       -1986.4               
    74 r.78                  1997.22          1.98               
    75 r.79                 -1997.22      -1997.22               
    76 r.80                  1997.58        1.2181               
    77 r.81                 -1997.58      -1997.58               
    78 r.82                   8.1572        2.9375               
    79 r.83                  -8.1572      -1997.22               
    80 r.84                  1996.36        2.4638               
    81 r.85                 -1996.36      -1997.58               
    82 r.86                   5.2197        5.2197               
    83 r.87                  -5.2197      -1997.22               
    84 r.88                  1993.89        3.9298               
    85 r.89                 -1993.89      -1997.58               
    86 r.90                  5.15584      -1992.64               
    87 r.91                 -1986.69      -1987.91               
    88 r.92                  5.15584      -1992.64               
    89 r.93                 -1986.69      -1987.91               
    90 r.94                  2.37634      -1993.44               
    91 r.95                 -1989.11      -1989.11               
    92 r.96                  2.37634      -1993.44               
    93 r.97                 -1989.11      -1989.11               
    94 r.98                 -1986.69      -1992.48               
    95 r.99                  9.67124      -1987.86               
    96 r.100                -1986.69      -1992.48               
    97 r.101                 9.67124      -1987.86               
    98 r.102                -1989.62       -1990.2               
    99 r.103                 7.20744       -1986.4               
   100 r.104                -1989.62       -1990.2               
   101 r.105                 7.20744       -1986.4               
   102 r.106                 5.15584      -1992.64               
   103 r.107                -1986.69      -1987.91               
   104 r.108                 5.15584      -1992.64               
   105 r.109                -1986.69      -1987.91               

   No. Column name       Activity     Lower bound   Upper bound
------ ------------    ------------- ------------- -------------
     1 tt                     13.587             0               
     2 s_1_1        *              0             0             1 
     3 t_1_1                 10.9367             0               
     4 s_2_1        *              1             0             1 
     5 t_2_1                  2.4237             0               
     6 s_1_2        *              1             0             1 
     7 t_1_2                       0             0               
     8 s_2_2        *              0             0             1 
     9 t_2_2                  3.6418             0               
    10 s_1_3        *              1             0             1 
    11 t_1_3                  2.9375             0               
    12 s_2_3        *              0             0             1 
    13 t_2_3                  6.1056             0               
    14 s_1_4        *              0             0             1 
    15 t_1_4                  8.1572             0               
    16 s_2_4        *              1             0             1 
    17 t_2_4                       0             0               
    18 s_1_5        *              1             0             1 
    19 t_1_5                  13.313             0               
    20 s_2_5        *              0             0             1 
    21 t_2_5                  13.313             0               
    22 u_1_1_2      *              0             0             1 
    23 u_2_1_2      *              1             0             1 
    24 u_1_1_3      *              0             0             1 
    25 u_2_1_3      *              1             0             1 
    26 u_1_1_4      *              0             0             1 
    27 u_2_1_4      *              0             0             1 
    28 u_1_2_1      *              1             0             1 
    29 u_2_2_1      *              0             0             1 
    30 u_1_2_3      *              1             0             1 
    31 u_2_2_3      *              1             0             1 
    32 u_1_2_4      *              1             0             1 
    33 u_2_2_4      *              0             0             1 
    34 u_1_3_1      *              1             0             1 
    35 u_2_3_1      *              0             0             1 
    36 u_1_3_2      *              0             0             1 
    37 u_2_3_2      *              0             0             1 
    38 u_1_3_4      *              1             0             1 
    39 u_2_3_4      *              0             0             1 
    40 u_1_4_1      *              1             0             1 
    41 u_2_4_1      *              1             0             1 
    42 u_1_4_2      *              0             0             1 
    43 u_2_4_2      *              1             0             1 
    44 u_1_4_3      *              0             0             1 
    45 u_2_4_3      *              1             0             1 

Integer feasibility conditions:

KKT.PE: max.abs.err = 0.00e+00 on row 0
        max.rel.err = 0.00e+00 on row 0
        High quality

KKT.PB: max.abs.err = 7.99e-15 on row 64
        max.rel.err = 2.31e-15 on row 64
        High quality

End of output
